language ESSENCE' 1.0
$ loaded file: carseqdata/csplib-instance-58
letting numcars=200
letting numclasses=25
letting numoptions=5
letting optMax=[1, 2, 1, 2, 1]
letting windowSize=[2, 3, 3, 5, 5]
letting numberPerClass=[3, 1, 7, 8, 6, 1, 2, 1, 2, 5, 6, 14, 4, 3, 8, 41, 8, 1, 5, 3, 1, 20, 14, 27, 9]
letting optionsRequired=[[0, 1, 0, 0, 1], [1, 1, 1, 1, 1], [1, 0, 0, 0, 1], [1, 1, 0, 1, 0], [0, 1, 1, 0, 0], [1, 1, 1, 0, 1], [1, 1, 1, 1, 0], [0, 0, 0, 1, 1], [0, 0, 1, 1, 1], [1, 1, 0, 0, 1], [1, 1, 0, 0, 0], [0, 0, 1, 0, 0], [1, 0, 1, 0, 0], [0, 1, 0, 1, 1], [1, 0, 0, 1, 0], [0, 1, 0, 0, 0], [0, 0, 0, 0, 1], [1, 0, 1, 0, 1], [1, 1, 1, 0, 0], [0, 1, 1, 0, 1], [0, 0, 1, 0, 0], [0, 0, 0, 1, 0], [0, 1, 0, 1, 0], [1, 0, 0, 0, 0], [0, 0, 1, 1, 0]]
